STUDENTS = {Leslie,Glenda,Wendy,Ellen,Erik,Laurie,Bonnie,Wallace,Theresa,Julia,Bobby,Jane,Louis,Florence,Elaine,Peggy,Mildred,Jeanne,Kenneth,Ian,Cecil,Betsy,Audrey,Glen,Rita,Shelley,Anne,Patrick,Gerald,Dwight,Herbert,Sherri,Shawn,Carolyn,Lorraine,Marian,Chris,Eva,Allan,Lois,Earl,Kristen,Samantha,Betty,Marlene,Kelly,Brooke,Kent,Jessica,Allen,Catherine,Carl,Rebecca,Kristina,Heidi,Stacey,Patsy,Lauren,Kay,Nina,Sheila,April,Harold,Arnold,Lester,David,Tina,Jessie,Jacob,Veronica,Vernon,Alexandra,James,Rose,Theodore,Phyllis,Edna,Matthew,Jill,Christy,Ryan,Lee,Danny,Dan,Cathy,Gwendolyn,Philip,Arthur,Josephine,Donna,Alex,Seth,Claude,Peter,Kathleen,Toni,Denise,Beth,Norman,Harry,Mike,Erika,Willie,Carrie,Clara,Michelle,Bill,Judy,Teresa,Joyce,Irene,Elizabeth,Carmen,Jon,Deborah,Paula,Lawrence,Heather,Marguerite,Constance,Patricia,Diana,Vanessa,Douglas,Diane,Barbara,Kathy,Christian,Herman,Lillian,Gilbert,Jan,Harriet,Ted,Benjamin,Kim,Kristin,Carlos,Dennis,Molly,Edgar,Oscar,Jerome,Amy,Brenda,Karl,Ashley,Dorothy,Neal,Leigh};
T = 150;
LWB = 3;
UPB = 5;
apart = [|Leslie,Glenda|Leslie,Wendy|Glenda,Marian|Glenda,Marlene|Wendy,Betty|Erik,Sherri|Erik,Philip|Erik,Kim|Laurie,Joyce|Bonnie,Jon|Theresa,Rose|Theresa,Matthew|Julia,Beth|Louis,Jon|Florence,Carl|Florence,Rose|Elaine,Peggy|Elaine,Phyllis|Elaine,Cathy|Elaine,Judy|Mildred,Barbara|Jeanne,Nina|Jeanne,James|Jeanne,Denise|Kenneth,Samantha|Ian,Philip|Ian,Arthur|Ian,Amy|Cecil,Brooke|Cecil,Jerome|Betsy,Glen|Audrey,Anne|Audrey,Carl|Audrey,Kay|Audrey,Norman|Glen,Lee|Glen,Christian|Rita,Chris|Rita,Veronica|Rita,Irene|Shelley,Dennis|Anne,Benjamin|Gerald,Carrie|Gerald,Irene|Gerald,Marguerite|Dwight,Phyllis|Herbert,Patsy|Herbert,Herman|Herbert,Kristin|Herbert,Carlos|Sherri,Arthur|Lorraine,Gwendolyn|Lorraine,Heather|Allan,Lester|Lois,Tina|Kristen,Carlos|Samantha,Barbara|Samantha,Carlos|Betty,Sheila|Betty,Dorothy|Marlene,Elizabeth|Brooke,April|Brooke,Donna|Kent,Clara|Allen,Arthur|Allen,Mike|Catherine,Vernon|Catherine,Denise|Kristina,Paula|Stacey,Ashley|Patsy,Christy|Patsy,Molly|Lauren,Donna|Kay,Vanessa|Kay,Dennis|Nina,Matthew|April,Ashley|Lester,Diana|Jacob,Carlos|Vernon,Cathy|Vernon,Irene|Alexandra,Carlos|Theodore,Lillian|Edna,Bill|Matthew,Patricia|Matthew,Kathy|Christy,Claude|Christy,Gilbert|Danny,Teresa|Dan,Diana|Claude,Heather|Peter,Jan|Denise,Diana|Denise,Edgar|Beth,Clara|Norman,Kristin|Mike,Joyce|Erika,Constance|Lawrence,Gilbert|Heather,Diana|Patricia,Herman|Vanessa,Edgar|Douglas,Jerome|Christian,Leigh|Edgar,Brenda|];
together = [|Wendy,Harriet|Rebecca,Amy|Phyllis,Constance|Alex,Lawrence|Carrie,Michelle|];
